10060
1111111111
3 6 3 0 2 9 5 5 3 7 7 4 1 2 6 1 2 2 5 3 0 0 6 4 0 0 7 4 4 7 7 7 3 3 3 5 9 2 0 6 0 9 6 9 5 5 5 5 5 3 3 5 6 0 0 0 9 6 1 2 9 7 7 7 3 3 6 4 8 7 3 0 6 0 0 4 4 3 3 4 3 5 2 9 2 2 6 7 2 7 9 1 2 1 1 9 9 9 9 9 